12
0 50 82 38 84 26 44 72 44 29 57 71
50 0 43 37 46 47 26 77 41 42 66 95
82 43 0 22 94 50 14 23 60 75 36 62
38 37 22 0 25 56 45 36 22 49 49 50
84 46 94 25 0 18 72 53 41 82 36 85
26 47 50 56 18 0 21 80 91 38 25 47
44 26 14 45 72 21 0 78 44 69 83 71
72 77 23 36 53 80 78 0 70 59 91 48
44 41 60 22 41 91 44 70 0 18 83 42
29 42 75 49 82 38 69 59 18 0 65 53
57 66 36 49 36 25 83 91 83 65 0 82
71 95 62 50 85 47 71 48 42 53 82 0
